454
1 0 5 228 0 454 1 453 1 452 1 451 1
2 0 5 229 1 327 1 237 1 372 1 329 1
3 0 5 230 1 403 1 318 1 295 1 241 1
4 0 5 231 1 316 1 326 1 434 1 414 1
5 0 5 232 1 232 1 408 1 300 1 310 1
6 0 5 233 1 371 1 334 1 238 1 433 1
7 0 5 234 1 350 1 367 1 239 1 344 1
8 0 5 235 1 409 1 345 1 360 1 277 1
9 0 5 236 1 360 1 236 1 316 1 231 1
10 0 5 237 1 229 1 327 1 432 1 372 1
11 0 5 238 1 421 1 334 1 323 1 262 1
12 0 5 239 1 367 1 301 1 344 1 357 1
13 0 5 240 1 344 1 319 1 429 1 357 1
14 0 5 241 1 403 1 230 1 318 1 228 1
15 0 5 242 1 287 1 254 1 380 1 268 1
16 0 5 243 1 333 1 287 1 317 1 242 1
17 0 5 244 1 370 1 368 1 339 1 435 1
18 0 5 245 1 295 1 228 1 267 1 335 1
19 0 5 246 1 286 1 434 1 282 1 332 1
20 0 5 247 1 348 1 258 1 374 1 420 1
21 0 5 248 1 252 1 269 1 259 1 400 1
22 0 5 249 1 320 1 280 1 423 1 410 1
23 0 5 250 1 378 1 266 1 368 1 370 1
24 0 5 251 1 410 1 422 1 320 1 278 1
25 0 5 252 1 289 1 328 1 253 1 338 1
26 0 5 253 1 289 1 328 1 338 1 400 1
27 0 5 254 1 380 1 268 1 242 1 287 1
28 0 5 255 1 406 1 401 1 292 1 382 1
29 0 5 256 1 348 1 302 1 258 1 324 1
30 0 5 257 1 315 1 396 1 278 1 307 1
31 0 5 258 1 348 1 374 1 296 1 359 1
32 0 5 259 1 253 1 252 1 289 1 328 1
33 0 5 260 1 376 1 388 1 417 1 314 1
34 0 5 261 1 264 1 416 1 349 1 336 1
35 0 5 262 1 323 1 395 1 418 1 238 1
36 0 5 263 1 237 1 394 1 354 1 347 1
37 0 5 264 1 261 1 349 1 404 1 416 1
38 0 5 265 1 427 1 309 1 366 1 363 1
39 0 5 266 1 378 1 250 1 342 1 370 1
40 0 5 267 1 335 1 228 1 306 1 383 1
41 0 5 268 1 380 1 254 1 333 1 242 1
42 0 5 269 1 308 1 400 1 313 1 248 1
43 0 5 270 1 340 1 384 1 315 1 278 1
44 0 5 271 1 241 1 230 1 383 1 350 1
45 0 5 272 1 359 1 374 1 330 1 296 1
46 0 5 273 1 337 1 436 1 407 1 406 1
47 0 5 274 1 421 1 238 1 356 1 334 1
48 0 5 275 1 438 1 392 1 375 1 294 1
49 0 5 276 1 361 1 254 1 268 1 380 1
50 0 5 277 1 409 1 345 1 389 1 286 1
51 0 5 278 1 381 1 307 1 384 1 340 1
52 0 5 279 1 399 1 322 1 402 1 293 1
53 0 5 280 1 423 1 373 1 320 1 391 1
54 0 5 281 1 237 1 263 1 229 1 372 1
55 0 5 282 1 246 1 413 1 286 1 434 1
56 0 5 283 1 363 1 427 1 309 1 366 1
57 0 5 284 1 427 1 370 1 342 1 291 1
58 0 5 285 1 346 1 311 1 371 1 430 1
59 0 5 286 1 412 1 291 1 283 1 389 1
60 0 5 287 1 242 1 333 1 243 1 380 1
61 0 5 288 1 408 1 300 1 310 1 437 1
62 0 5 289 1 328 1 338 1 390 1 436 1
63 0 5 290 1 273 1 304 1 330 1 296 1
64 0 5 291 1 435 1 339 1 342 1 370 1
65 0 5 292 1 382 1 407 1 436 1 401 1
66 0 5 293 1 322 1 314 1 343 1 399 1
67 0 5 294 1 392 1 375 1 294 1 319 1
68 0 5 295 1 403 1 245 1 335 1 383 1
69 0 5 296 1 374 1 359 1 304 1 258 1
70 0 5 297 1 369 1 428 1 425 1 431 1
71 0 5 298 1 319 1 429 1 240 1 344 1
72 0 5 299 1 237 1 354 1 372 1 263 1
73 0 5 300 1 408 1 437 1 232 1 310 1
74 0 5 301 1 367 1 239 1 344 1 357 1
75 0 5 302 1 348 1 258 1 256 1 361 1
76 0 5 303 1 391 1 320 1 410 1 251 1
77 0 5 304 1 359 1 374 1 296 1 330 1
78 0 5 305 1 400 1 269 1 259 1 308 1
79 0 5 306 1 335 1 383 1 403 1 228 1
80 0 5 307 1 280 1 396 1 257 1 340 1
81 0 5 308 1 313 1 269 1 259 1 400 1
82 0 5 309 1 366 1 365 1 427 1 411 1
83 0 5 310 1 408 1 437 1 232 1 300 1
84 0 5 311 1 346 1 285 1 416 1 349 1
85 0 5 312 1 408 1 419 1 310 1 437 1
86 0 5 313 1 308 1 269 1 400 1 259 1
87 0 5 314 1 343 1 293 1 322 1 399 1
88 0 5 315 1 257 1 396 1 270 1 340 1
89 0 5 316 1 231 1 326 1 414 1 434 1
90 0 5 317 1 333 1 397 1 380 1 243 1
91 0 5 318 1 230 1 403 1 295 1 245 1
92 0 5 319 1 392 1 438 1 298 1 294 1
93 0 5 320 1 249 1 280 1 423 1 373 1
94 0 5 321 1 286 1 263 1 309 1 411 1
95 0 5 322 1 293 1 314 1 343 1 279 1
96 0 5 323 1 386 1 262 1 433 1 395 1
97 0 5 324 1 287 1 242 1 254 1 256 1
98 0 5 325 1 424 1 324 1 256 1 287 1
99 0 5 326 1 231 1 316 1 434 1 385 1
100 0 5 327 1 432 1 372 1 329 1 229 1
101 0 5 328 1 390 1 338 1 292 1 255 1
102 0 5 329 1 237 1 372 1 229 1 263 1
103 0 5 330 1 374 1 359 1 272 1 296 1
104 0 5 331 1 331 1 425 1 352 1 428 1
105 0 5 332 1 413 1 389 1 345 1 409 1
106 0 5 333 1 243 1 287 1 317 1 397 1
107 0 5 334 1 238 1 356 1 233 1 274 1
108 0 5 335 1 228 1 383 1 267 1 306 1
109 0 5 336 1 261 1 416 1 264 1 311 1
110 0 5 337 1 407 1 436 1 406 1 228 1
111 0 5 338 1 390 1 305 1 400 1 248 1
112 0 5 339 1 291 1 342 1 415 1 370 1
113 0 5 340 1 278 1 270 1 384 1 315 1
114 0 5 341 1 273 1 383 1 241 1 306 1
115 0 5 342 1 291 1 435 1 266 1 339 1
116 0 5 343 1 314 1 322 1 293 1 279 1
117 0 5 344 1 240 1 357 1 301 1 239 1
118 0 5 345 1 409 1 277 1 413 1 286 1
119 0 5 346 1 311 1 285 1 371 1 261 1
120 0 5 347 1 263 1 237 1 354 1 394 1
121 0 5 348 1 258 1 374 1 296 1 247 1
122 0 5 349 1 393 1 323 1 416 1 336 1
123 0 5 350 1 367 1 239 1 301 1 344 1
124 0 5 351 1 398 1 270 1 362 1 384 1
125 0 5 352 1 425 1 431 1 331 1 297 1
126 0 5 353 1 419 1 437 1 312 1 300 1
127 0 5 354 1 263 1 299 1 394 1 347 1
128 0 5 355 1 414 1 434 1 316 1 231 1
129 0 5 356 1 238 1 421 1 274 1 334 1
130 0 5 357 1 234 1 271 1 388 1 350 1
131 0 5 358 1 324 1 242 1 287 1 256 1
132 0 5 359 1 374 1 272 1 304 1 330 1
133 0 5 360 1 413 1 409 1 235 1 282 1
134 0 5 361 1 276 1 254 1 268 1 242 1
135 0 5 362 1 278 1 398 1 270 1 384 1
136 0 5 363 1 283 1 265 1 309 1 427 1
137 0 5 364 1 417 1 402 1 399 1 279 1
138 0 5 365 1 309 1 411 1 366 1 427 1
139 0 5 366 1 309 1 427 1 365 1 265 1
140 0 5 367 1 301 1 239 1 344 1 357 1
141 0 5 368 1 415 1 250 1 435 1 339 1
142 0 5 369 1 297 1 352 1 425 1 428 1
143 0 5 370 1 284 1 435 1 415 1 291 1
144 0 5 371 1 404 1 264 1 261 1 311 1
145 0 5 372 1 237 1 329 1 299 1 347 1
146 0 5 373 1 423 1 422 1 320 1 410 1
147 0 5 374 1 330 1 359 1 272 1 296 1
148 0 5 375 1 438 1 392 1 294 1 388 1
149 0 5 376 1 260 1 388 1 331 1 428 1
150 0 5 377 1 361 1 258 1 348 1 302 1
151 0 5 378 1 266 1 250 1 342 1 368 1
152 0 5 379 1 244 1 339 1 435 1 342 1
153 0 5 380 1 268 1 254 1 242 1 333 1
154 0 5 381 1 268 1 380 1 397 1 254 1
155 0 5 382 1 292 1 401 1 255 1 407 1
156 0 5 383 1 335 1 403 1 228 1 306 1
157 0 5 384 1 278 1 270 1 340 1 362 1
158 0 5 385 1 286 1 326 1 434 1 231 1
159 0 5 386 1 323 1 262 1 418 1 433 1
160 0 5 387 1 286 1 266 1 342 1 250 1
161 0 5 388 1 234 1 357 1 438 1 392 1
162 0 5 389 1 286 1 277 1 332 1 345 1
163 0 5 390 1 248 1 400 1 305 1 269 1
164 0 5 391 1 303 1 320 1 410 1 373 1
165 0 5 392 1 438 1 294 1 319 1 375 1
166 0 5 393 1 323 1 386 1 416 1 261 1
167 0 5 394 1 263 1 354 1 237 1 347 1
168 0 5 395 1 262 1 433 1 323 1 238 1
169 0 5 396 1 278 1 257 1 315 1 270 1
170 0 5 397 1 333 1 268 1 317 1 243 1
171 0 5 398 1 278 1 362 1 270 1 384 1
172 0 5 399 1 279 1 293 1 322 1 417 1
173 0 5 400 1 305 1 308 1 269 1 259 1
174 0 5 401 1 406 1 382 1 292 1 255 1
175 0 5 402 1 279 1 417 1 399 1 322 1
176 0 5 403 1 295 1 383 1 230 1 241 1
177 0 5 404 1 264 1 261 1 371 1 311 1
178 0 5 405 1 434 1 236 1 231 1 316 1
179 0 5 406 1 401 1 255 1 337 1 292 1
180 0 5 407 1 407 1 337 1 292 1 406 1
181 0 5 408 1 353 1 371 1 312 1 310 1
182 0 5 409 1 345 1 277 1 235 1 413 1
183 0 5 410 1 422 1 303 1 391 1 320 1
184 0 5 411 1 309 1 365 1 366 1 265 1
185 0 5 412 1 379 1 427 1 265 1 363 1
186 0 5 413 1 409 1 345 1 332 1 277 1
187 0 5 414 1 355 1 316 1 434 1 231 1
188 0 5 415 1 291 1 368 1 435 1 339 1
189 0 5 416 1 261 1 264 1 336 1 311 1
190 0 5 417 1 364 1 402 1 279 1 399 1
191 0 5 418 1 262 1 323 1 238 1 433 1
192 0 5 419 1 312 1 408 1 310 1 232 1
193 0 5 420 1 247 1 348 1 256 1 424 1
194 0 5 421 1 274 1 238 1 356 1 334 1
195 0 5 422 1 280 1 307 1 391 1 373 1
196 0 5 423 1 320 1 373 1 280 1 251 1
197 0 5 424 1 243 1 287 1 256 1 324 1
198 0 5 425 1 431 1 352 1 331 1 297 1
199 0 5 426 1 242 1 287 1 254 1 333 1
200 0 5 427 1 309 1 265 1 366 1 363 1
201 0 5 428 1 297 1 431 1 331 1 425 1
202 0 5 429 1 429 1 392 1 438 1 294 1
203 0 5 430 1 393 1 430 1 323 1 416 1
204 0 5 431 1 425 1 352 1 297 1 428 1
205 0 5 432 1 237 1 263 1 432 1 229 1
206 0 5 433 1 323 1 433 1 395 1 238 1
207 0 5 434 1 360 1 414 1 316 1 355 1
208 0 5 435 1 291 1 435 1 342 1 415 1
209 0 5 436 1 337 1 292 1 406 1 255 1
210 0 5 437 1 310 1 408 1 300 1 312 1
211 0 5 438 1 392 1 375 1 319 1 388 1
212 0 5 439 0 228 1 439 1 440 1 441 1
213 0 5 440 0 228 1 439 1 440 1 441 1
214 0 5 441 0 228 1 439 1 440 1 441 1
215 0 5 442 0 228 1 439 1 440 1 441 1
216 0 5 443 0 228 1 439 1 440 1 441 1
217 0 5 444 0 228 1 439 1 440 1 441 1
218 0 5 445 0 228 1 439 1 440 1 441 1
219 0 5 446 0 228 1 439 1 440 1 441 1
220 0 5 447 0 228 1 439 1 440 1 441 1
221 0 5 448 0 228 1 439 1 440 1 441 1
222 0 5 449 0 228 1 439 1 440 1 441 1
223 0 5 450 0 228 1 439 1 440 1 441 1
224 0 5 451 0 228 1 439 1 440 1 441 1
225 0 5 452 0 228 1 439 1 440 1 441 1
226 0 5 453 0 228 1 439 1 440 1 441 1
227 0 5 454 0 228 1 439 1 440 1 441 1
228 0 5 1 0 227 1 226 1 225 1 224 1
229 0 5 2 1 10 1 100 1 36 1 145 1
230 0 5 3 1 44 1 114 1 91 1 14 1
231 0 5 4 1 89 1 178 1 99 1 9 1
232 0 5 5 1 181 1 144 1 5 1 126 1
233 0 5 6 1 107 1 194 1 206 1 47 1
234 0 5 7 1 130 1 161 1 44 1 123 1
235 0 5 8 1 133 1 182 1 118 1 59 1
236 0 5 9 1 9 1 178 1 59 1 187 1
237 0 5 10 1 36 1 2 1 54 1 72 1
238 0 5 11 1 6 1 194 1 144 1 107 1
239 0 5 12 1 140 1 74 1 123 1 130 1
240 0 5 13 1 117 1 92 1 161 1 202 1
241 0 5 14 1 114 1 44 1 176 1 3 1
242 0 5 15 1 153 1 154 1 41 1 60 1
243 0 5 16 1 170 1 106 1 154 1 60 1
244 0 5 17 1 152 1 185 1 23 1 141 1
245 0 5 18 1 114 1 176 1 40 1 68 1
246 0 5 19 1 178 1 207 1 9 1 55 1
247 0 5 20 1 121 1 193 1 197 1 29 1
248 0 5 21 1 42 1 173 1 46 1 86 1
249 0 5 22 1 183 1 93 1 24 1 196 1
250 0 5 23 1 160 1 151 1 39 1 141 1
251 0 5 24 1 51 1 196 1 164 1 146 1
252 0 5 25 1 32 1 26 1 155 1 21 1
253 0 5 26 1 32 1 25 1 173 1 81 1
254 0 5 27 1 154 1 153 1 41 1 15 1
255 0 5 28 1 174 1 179 1 65 1 155 1
256 0 5 29 1 121 1 197 1 193 1 98 1
257 0 5 30 1 169 1 88 1 51 1 113 1
258 0 5 31 1 121 1 63 1 69 1 147 1
259 0 5 32 1 81 1 86 1 173 1 78 1
260 0 5 33 1 149 1 190 1 172 1 175 1
261 0 5 34 1 144 1 189 1 177 1 37 1
262 0 5 35 1 168 1 191 1 6 1 11 1
263 0 5 36 1 167 1 127 1 72 1 120 1
264 0 5 37 1 144 1 177 1 34 1 189 1
265 0 5 38 1 200 1 136 1 139 1 185 1
266 0 5 39 1 160 1 151 1 23 1 141 1
267 0 5 40 1 114 1 79 1 108 1 1 1
268 0 5 41 1 154 1 153 1 170 1 27 1
269 0 5 42 1 86 1 81 1 173 1 78 1
270 0 5 43 1 51 1 113 1 157 1 135 1
271 0 5 44 1 130 1 14 1 3 1 7 1
272 0 5 45 1 103 1 147 1 132 1 63 1
273 0 5 46 1 150 1 1 1 28 1 110 1
274 0 5 47 1 194 1 129 1 11 1 144 1
275 0 5 48 1 211 1 161 1 165 1 92 1
276 0 5 49 1 134 1 154 1 27 1 41 1
277 0 5 50 1 118 1 182 1 162 1 133 1
278 0 5 51 1 157 1 113 1 135 1 171 1
279 0 5 52 1 33 1 172 1 175 1 95 1
280 0 5 53 1 195 1 196 1 93 1 146 1
281 0 5 54 1 145 1 72 1 127 1 36 1
282 0 5 55 1 207 1 9 1 133 1 178 1
283 0 5 56 1 136 1 94 1 185 1 200 1
284 0 5 57 1 143 1 64 1 115 1 112 1
285 0 5 58 1 119 1 144 1 84 1 189 1
286 0 5 59 1 94 1 162 1 19 1 182 1
287 0 5 60 1 153 1 15 1 154 1 170 1
288 0 5 61 1 181 1 144 1 210 1 126 1
289 0 5 62 1 25 1 26 1 101 1 65 1
290 0 5 63 1 46 1 131 1 150 1 20 1
291 0 5 64 1 160 1 112 1 208 1 188 1
292 0 5 65 1 155 1 28 1 46 1 209 1
293 0 5 66 1 33 1 95 1 172 1 116 1
294 0 5 67 1 161 1 165 1 67 1 148 1
295 0 5 68 1 114 1 44 1 91 1 176 1
296 0 5 69 1 63 1 147 1 31 1 103 1
297 0 5 70 1 149 1 142 1 201 1 198 1
298 0 5 71 1 161 1 92 1 202 1 48 1
299 0 5 72 1 127 1 145 1 36 1 167 1
300 0 5 73 1 210 1 181 1 144 1 126 1
301 0 5 74 1 140 1 12 1 117 1 123 1
302 0 5 75 1 121 1 29 1 150 1 31 1
303 0 5 76 1 183 1 164 1 196 1 146 1
304 0 5 77 1 63 1 132 1 69 1 147 1
305 0 5 78 1 173 1 26 1 42 1 86 1
306 0 5 79 1 114 1 40 1 44 1 156 1
307 0 5 80 1 195 1 154 1 169 1 51 1
308 0 5 81 1 86 1 42 1 173 1 26 1
309 0 5 82 1 139 1 138 1 94 1 38 1
310 0 5 83 1 181 1 210 1 192 1 126 1
311 0 5 84 1 144 1 119 1 189 1 58 1
312 0 5 85 1 181 1 192 1 210 1 126 1
313 0 5 86 1 81 1 42 1 173 1 78 1
314 0 5 87 1 33 1 116 1 66 1 95 1
315 0 5 88 1 30 1 51 1 169 1 113 1
316 0 5 89 1 4 1 178 1 9 1 207 1
317 0 5 90 1 170 1 154 1 106 1 153 1
318 0 5 91 1 44 1 3 1 114 1 176 1
319 0 5 92 1 165 1 161 1 211 1 48 1
320 0 5 93 1 183 1 196 1 24 1 164 1
321 0 5 94 1 138 1 184 1 56 1 136 1
322 0 5 95 1 33 1 66 1 52 1 116 1
323 0 5 96 1 166 1 159 1 203 1 35 1
324 0 5 97 1 197 1 98 1 131 1 29 1
325 0 5 98 1 197 1 193 1 97 1 121 1
326 0 5 99 1 178 1 4 1 207 1 9 1
327 0 5 100 1 2 1 10 1 54 1 145 1
328 0 5 101 1 62 1 26 1 25 1 65 1
329 0 5 102 1 145 1 72 1 127 1 120 1
330 0 5 103 1 63 1 147 1 45 1 132 1
331 0 5 104 1 149 1 104 1 198 1 125 1
332 0 5 105 1 133 1 162 1 186 1 118 1
333 0 5 106 1 170 1 90 1 153 1 154 1
334 0 5 107 1 6 1 194 1 11 1 129 1
335 0 5 108 1 40 1 79 1 156 1 176 1
336 0 5 109 1 144 1 189 1 34 1 37 1
337 0 5 110 1 209 1 180 1 65 1 179 1
338 0 5 111 1 101 1 26 1 62 1 163 1
339 0 5 112 1 160 1 64 1 188 1 141 1
340 0 5 113 1 51 1 157 1 169 1 43 1
341 0 5 114 1 46 1 1 1 110 1 209 1
342 0 5 115 1 160 1 208 1 64 1 112 1
343 0 5 116 1 87 1 33 1 95 1 66 1
344 0 5 117 1 13 1 74 1 12 1 202 1
345 0 5 118 1 133 1 182 1 186 1 50 1
346 0 5 119 1 144 1 84 1 58 1 189 1
347 0 5 120 1 127 1 36 1 167 1 145 1
348 0 5 121 1 31 1 29 1 75 1 20 1
349 0 5 122 1 144 1 37 1 34 1 166 1
350 0 5 123 1 7 1 44 1 130 1 161 1
351 0 5 124 1 43 1 88 1 30 1 171 1
352 0 5 125 1 149 1 198 1 204 1 142 1
353 0 5 126 1 181 1 144 1 192 1 210 1
354 0 5 127 1 167 1 72 1 36 1 145 1
355 0 5 128 1 207 1 9 1 187 1 133 1
356 0 5 129 1 194 1 6 1 107 1 47 1
357 0 5 130 1 161 1 114 1 117 1 12 1
358 0 5 131 1 97 1 98 1 197 1 15 1
359 0 5 132 1 45 1 103 1 77 1 147 1
360 0 5 133 1 207 1 9 1 59 1 186 1
361 0 5 134 1 49 1 154 1 27 1 41 1
362 0 5 135 1 171 1 51 1 154 1 157 1
363 0 5 136 1 56 1 185 1 94 1 59 1
364 0 5 137 1 190 1 175 1 172 1 52 1
365 0 5 138 1 184 1 82 1 139 1 94 1
366 0 5 139 1 82 1 200 1 138 1 184 1
367 0 5 140 1 74 1 12 1 123 1 117 1
368 0 5 141 1 160 1 188 1 208 1 178 1
369 0 5 142 1 70 1 149 1 125 1 198 1
370 0 5 143 1 17 1 208 1 112 1 64 1
371 0 5 144 1 6 1 177 1 37 1 34 1
372 0 5 145 1 72 1 127 1 102 1 120 1
373 0 5 146 1 183 1 196 1 195 1 164 1
374 0 5 147 1 103 1 45 1 69 1 132 1
375 0 5 148 1 161 1 211 1 67 1 165 1
376 0 5 149 1 33 1 204 1 198 1 201 1
377 0 5 150 1 134 1 49 1 31 1 121 1
378 0 5 151 1 160 1 39 1 23 1 141 1
379 0 5 152 1 185 1 208 1 112 1 59 1
380 0 5 153 1 41 1 154 1 27 1 170 1
381 0 5 154 1 51 1 41 1 153 1 170 1
382 0 5 155 1 65 1 174 1 28 1 209 1
383 0 5 156 1 44 1 114 1 176 1 108 1
384 0 5 157 1 51 1 113 1 135 1 171 1
385 0 5 158 1 178 1 207 1 99 1 9 1
386 0 5 159 1 96 1 166 1 191 1 35 1
387 0 5 160 1 178 1 115 1 39 1 112 1
388 0 5 161 1 149 1 130 1 211 1 148 1
389 0 5 162 1 105 1 59 1 133 1 118 1
390 0 5 163 1 111 1 101 1 62 1 173 1
391 0 5 164 1 183 1 76 1 195 1 196 1
392 0 5 165 1 211 1 161 1 67 1 202 1
393 0 5 166 1 203 1 122 1 34 1 189 1
394 0 5 167 1 127 1 120 1 36 1 145 1
395 0 5 168 1 35 1 6 1 206 1 11 1
396 0 5 169 1 51 1 113 1 157 1 80 1
397 0 5 170 1 154 1 90 1 41 1 153 1
398 0 5 171 1 135 1 51 1 154 1 157 1
399 0 5 172 1 33 1 52 1 66 1 175 1
400 0 5 173 1 78 1 86 1 81 1 42 1
401 0 5 174 1 155 1 179 1 65 1 28 1
402 0 5 175 1 33 1 52 1 172 1 190 1
403 0 5 176 1 44 1 14 1 3 1 68 1
404 0 5 177 1 144 1 37 1 34 1 189 1
405 0 5 178 1 158 1 4 1 99 1 89 1
406 0 5 179 1 174 1 65 1 28 1 110 1
407 0 5 180 1 180 1 110 1 65 1 46 1
408 0 5 181 1 144 1 210 1 83 1 85 1
409 0 5 182 1 133 1 118 1 50 1 186 1
410 0 5 183 1 24 1 51 1 164 1 76 1
411 0 5 184 1 138 1 82 1 139 1 94 1
412 0 5 185 1 59 1 160 1 200 1 136 1
413 0 5 186 1 133 1 118 1 105 1 182 1
414 0 5 187 1 207 1 9 1 128 1 89 1
415 0 5 188 1 141 1 160 1 208 1 112 1
416 0 5 189 1 144 1 109 1 34 1 37 1
417 0 5 190 1 33 1 175 1 172 1 52 1
418 0 5 191 1 35 1 109 1 6 1 11 1
419 0 5 192 1 126 1 181 1 210 1 85 1
420 0 5 193 1 197 1 121 1 20 1 98 1
421 0 5 194 1 144 1 47 1 11 1 129 1
422 0 5 195 1 183 1 146 1 196 1 164 1
423 0 5 196 1 183 1 146 1 93 1 195 1
424 0 5 197 1 98 1 193 1 97 1 29 1
425 0 5 198 1 149 1 204 1 104 1 125 1
426 0 5 199 1 41 1 153 1 15 1 106 1
427 0 5 200 1 185 1 139 1 82 1 38 1
428 0 5 201 1 149 1 70 1 204 1 198 1
429 0 5 202 1 202 1 165 1 211 1 161 1
430 0 5 203 1 203 1 144 1 34 1 166 1
431 0 5 204 1 149 1 198 1 125 1 201 1
432 0 5 205 1 205 1 145 1 72 1 36 1
433 0 5 206 1 206 1 6 1 168 1 191 1
434 0 5 207 1 178 1 9 1 59 1 89 1
435 0 5 208 1 208 1 160 1 64 1 188 1
436 0 5 209 1 110 1 65 1 46 1 28 1
437 0 5 210 1 126 1 181 1 192 1 83 1
438 0 5 211 1 165 1 148 1 161 1 202 1
439 0 5 212 0 227 1 226 1 225 1 224 1
440 0 5 213 0 227 1 226 1 225 1 224 1
441 0 5 214 0 227 1 226 1 225 1 224 1
442 0 5 215 0 227 1 226 1 225 1 224 1
443 0 5 216 0 227 1 226 1 225 1 224 1
444 0 5 217 0 227 1 226 1 225 1 224 1
445 0 5 218 0 227 1 226 1 225 1 224 1
446 0 5 219 0 227 1 226 1 225 1 224 1
447 0 5 220 0 227 1 226 1 225 1 224 1
448 0 5 221 0 227 1 226 1 225 1 224 1
449 0 5 222 0 227 1 226 1 225 1 224 1
450 0 5 223 0 227 1 226 1 225 1 224 1
451 0 5 224 0 227 1 226 1 225 1 224 1
452 0 5 225 0 227 1 226 1 225 1 224 1
453 0 5 226 0 227 1 226 1 225 1 224 1
454 0 5 227 0 227 1 226 1 225 1 224 1
-1
EOF
